62
150
104	2
103	1
101	1
100	1
99	2
97	2
96	2
95	2
94	1
93	1
91	3
90	3
89	1
88	2
87	2
86	1
84	2
83	2
80	1
79	1
74	1
73	1
72	1
71	3
69	1
64	3
63	3
62	1
61	1
60	1
59	1
58	1
57	1
56	1
55	1
54	1
53	1
52	2
51	1
50	2
48	2
47	3
46	1
45	2
44	2
43	1
41	1
40	1
37	2
35	2
34	2
33	3
32	1
28	1
27	2
26	1
22	4
21	1
20	1
19	1
17	1
16	4
